
n_res = 4;
rcap = [21, 18, 371, 393];
rtype = [1, 1, 2, 2];
n_tasks = 100;
modes =  [{1, 2, 3}, {4, 5, 6}, {7, 8, 9}, {10, 11, 12}, {13, 14, 15}, {16, 17, 18}, {19, 20, 21}, {22, 23, 24}, {25, 26, 27}, {28, 29, 30}, {31, 32, 33}, {34, 35, 36}, {37, 38, 39}, {40, 41, 42}, {43, 44, 45}, {46, 47, 48}, {49, 50, 51}, {52, 53, 54}, {55, 56, 57}, {58, 59, 60}, {61, 62, 63}, {64, 65, 66}, {67, 68, 69}, {70, 71, 72}, {73, 74, 75}, {76, 77, 78}, {79, 80, 81}, {82, 83, 84}, {85, 86, 87}, {88, 89, 90}, {91, 92, 93}, {94, 95, 96}, {97, 98, 99}, {100, 101, 102}, {103, 104, 105}, {106, 107, 108}, {109, 110, 111}, {112, 113, 114}, {115, 116, 117}, {118, 119, 120}, {121, 122, 123}, {124, 125, 126}, {127, 128, 129}, {130, 131, 132}, {133, 134, 135}, {136, 137, 138}, {139, 140, 141}, {142, 143, 144}, {145, 146, 147}, {148, 149, 150}, {151, 152, 153}, {154, 155, 156}, {157, 158, 159}, {160, 161, 162}, {163, 164, 165}, {166, 167, 168}, {169, 170, 171}, {172, 173, 174}, {175, 176, 177}, {178, 179, 180}, {181, 182, 183}, {184, 185, 186}, {187, 188, 189}, {190, 191, 192}, {193, 194, 195}, {196, 197, 198}, {199, 200, 201}, {202, 203, 204}, {205, 206, 207}, {208, 209, 210}, {211, 212, 213}, {214, 215, 216}, {217, 218, 219}, {220, 221, 222}, {223, 224, 225}, {226, 227, 228}, {229, 230, 231}, {232, 233, 234}, {235, 236, 237}, {238, 239, 240}, {241, 242, 243}, {244, 245, 246}, {247, 248, 249}, {250, 251, 252}, {253, 254, 255}, {256, 257, 258}, {259, 260, 261}, {262, 263, 264}, {265, 266, 267}, {268, 269, 270}, {271, 272, 273}, {274, 275, 276}, {277, 278, 279}, {280, 281, 282}, {283, 284, 285}, {286, 287, 288}, {289, 290, 291}, {292, 293, 294}, {295, 296, 297}, {298, 299, 300}];
succ =  [{26, 17, 13, 12, 11, 6, 4}, {26, 25, 22, 17, 15, 12, 10}, {26, 25, 22, 20, 18, 17, 12}, {15, 10, 8}, {26, 23, 21, 18, 17, 16, 15}, {25, 22, 15, 14, 10}, {33, 26, 25, 24, 23, 15}, {24, 22, 21, 19, 16}, {26, 24, 23, 20, 16}, {33, 30, 23, 21, 19, 18}, {33, 30, 23, 20, 19, 18}, {30, 29, 21, 19, 14}, {34, 29, 27, 22, 21, 20}, {33, 32, 28, 24, 23}, {34, 29, 20, 19}, {33, 32, 31, 30, 28, 25}, {34, 33, 31, 29, 28, 27}, {35, 29, 28, 24}, {42, 40, 32, 31, 28, 27}, {42, 40, 35, 31, 28}, {44, 43, 40, 39, 36, 32}, {42, 40, 35, 33, 28}, {40, 36, 31, 27}, {44, 43, 39, 38, 37, 36, 34}, {44, 39, 37, 29}, {42, 28}, {54, 51, 50, 46, 45, 44, 39, 35}, {54, 51, 50, 49, 48, 46, 45, 44, 41, 39, 38}, {50, 49, 48, 41, 40, 38, 36}, {54, 51, 42, 38, 35}, {59, 54, 53, 51, 50, 48, 46, 45, 43, 39}, {50, 46, 38, 35}, {46, 38, 37}, {62, 59, 55, 53, 51, 48, 42}, {37}, {59, 58, 55, 54, 53, 52, 46, 45}, {58, 53, 49, 48, 41}, {70, 66, 62, 60, 59, 56, 55, 53, 52}, {66, 62, 60, 58, 55, 52, 47}, {66, 62, 60, 55, 51, 47}, {70, 66, 62, 60, 59, 57, 55, 52}, {58, 57, 52, 50, 46}, {69, 58, 49, 47}, {78, 70, 69, 65, 62, 61, 60, 57, 56}, {78, 74, 70, 69, 67, 66, 65, 62, 57, 56}, {78, 71, 70, 69, 68, 65, 61, 60, 56}, {78, 74, 70, 67, 65, 57, 56}, {78, 76, 74, 70, 69, 67, 66, 63, 57}, {78, 74, 71, 70, 65, 60, 56}, {78, 70, 68, 67, 65, 61, 56}, {78, 74, 69, 65, 57, 56}, {78, 76, 73, 71, 69, 68, 67, 64, 61}, {82, 78, 76, 74, 73, 69, 64, 57}, {78, 77, 76, 71, 69, 60}, {81, 78, 68, 65, 61}, {80, 77, 76, 73, 64, 63}, {86, 84, 81, 80, 79, 75, 72, 71, 68}, {86, 84, 82, 80, 76, 73, 72, 68}, {85, 76, 74, 64}, {80, 67, 63}, {100, 86, 85, 82, 77, 75, 74, 72}, {100, 86, 85, 84, 77, 76, 75, 72}, {100, 97, 87, 86, 85, 84, 82, 81, 79, 72}, {100, 97, 89, 86, 84, 81, 79, 75, 72}, {98, 87, 85, 84, 80, 76, 73}, {98, 87, 85, 84, 80, 79, 73}, {99, 98, 97, 89, 85, 83, 82, 75}, {100, 98, 96, 95, 92, 85, 77}, {99, 98, 97, 96, 87, 83, 79}, {98, 97, 96, 95, 94, 89, 87, 83, 80}, {99, 98, 97, 95, 94, 93, 89, 88, 83}, {99, 98, 96, 95, 94, 93, 88, 83}, {100, 97, 96, 95, 94, 93, 92, 91, 89}, {99, 84, 80, 79}, {96, 95, 94, 93, 92, 91, 87}, {96, 92, 91, 88, 79}, {97, 93, 91, 89, 87}, {97, 94, 80}, {95, 94, 93, 90}, {92, 91, 90}, {96, 91, 90}, {92, 88}, {92, 91}, {93, 91}, {91, 90}, {92, 90}, {88}, {90}, {90}, {}, {}, {}, {}, {}, {}, {}, {}, {}, {}, {}];
n_opt = 300;
dur = [1, 1, 5, 1, 5, 6, 6, 7, 9, 1, 3, 6, 2, 6, 8, 3, 5, 5, 3, 7, 7, 4, 7, 9, 4, 5, 8, 2, 9, 10, 1, 4, 9, 4, 7, 7, 3, 4, 9, 3, 4, 10, 1, 2, 4, 3, 6, 7, 4, 6, 8, 3, 6, 7, 4, 6, 6, 5, 9, 10, 2, 7, 10, 4, 5, 8, 2, 2, 10, 3, 5, 8, 1, 4, 8, 1, 2, 9, 1, 6, 8, 5, 6, 8, 2, 5, 9, 5, 7, 8, 3, 5, 8, 4, 6, 10, 5, 6, 6, 3, 4, 10, 7, 9, 10, 8, 9, 10, 4, 4, 7, 1, 8, 10, 2, 8, 10, 6, 8, 10, 1, 3, 7, 1, 2, 10, 2, 8, 9, 1, 4, 4, 1, 1, 8, 3, 6, 8, 1, 6, 9, 4, 5, 10, 2, 8, 9, 2, 9, 10, 5, 5, 8, 4, 5, 10, 5, 6, 10, 3, 4, 9, 1, 6, 9, 2, 7, 9, 3, 6, 10, 1, 3, 6, 1, 7, 9, 1, 4, 7, 6, 7, 10, 6, 7, 9, 4, 5, 5, 1, 9, 10, 2, 4, 9, 3, 4, 9, 1, 2, 4, 2, 3, 7, 3, 3, 7, 3, 6, 9, 4, 7, 9, 1, 6, 7, 1, 4, 8, 1, 5, 9, 3, 6, 9, 3, 3, 8, 5, 9, 9, 3, 6, 8, 2, 9, 10, 3, 4, 10, 1, 4, 9, 4, 8, 9, 1, 4, 7, 5, 6, 6, 5, 8, 9, 1, 1, 2, 7, 8, 10, 4, 5, 5, 6, 8, 10, 1, 2, 6, 1, 4, 9, 2, 5, 7, 7, 8, 9, 1, 4, 5, 1, 4, 4, 1, 8, 10, 3, 7, 10, 4, 5, 7, 4, 9, 10, 1, 2, 9];
rreq = [|0, 3, 3, 2, 2, 2, 0, 0, 0, 1, 0, 0, 0, 0, 3, 0, 0, 0, 0, 0, 1, 4, 0, 0, 5, 0, 2, 4, 4, 4, 0, 0, 0, 0, 0, 2, 2, 0, 0, 0, 0, 1, 5, 0, 0, 5, 0, 0, 0, 0, 0, 0, 1, 1, 0, 0, 3, 0, 0, 0, 0, 2, 0, 1, 1, 0, 0, 0, 4, 0, 4, 4, 3, 0, 1, 0, 5, 5, 0, 0, 1, 4, 3, 2, 0, 0, 0, 5, 4, 0, 0, 4, 0, 4, 0, 0, 0, 4, 0, 1, 0, 1, 3, 3, 2, 1, 0, 0, 3, 0, 0, 3, 3, 0, 0, 0, 0, 2, 0, 0, 2, 1, 0, 3, 3, 0, 0, 0, 1, 0, 1, 0, 0, 0, 0, 2, 0, 0, 5, 4, 3, 4, 4, 0, 0, 2, 0, 0, 3, 2, 0, 1, 1, 3, 0, 2, 2, 0, 0, 0, 0, 2, 4, 2, 2, 0, 3, 0, 0, 0, 3, 4, 0, 4, 4, 0, 0, 2, 0, 2, 0, 0, 0, 5, 0, 4, 1, 0, 1, 0, 0, 3, 0, 3, 0, 0, 0, 5, 5, 4, 2, 1, 0, 1, 1, 0, 1, 0, 0, 0, 0, 0, 3, 0, 0, 0, 0, 3, 0, 5, 3, 3, 2, 2, 2, 1, 0, 1, 0, 3, 0, 4, 0, 1, 1, 0, 0, 1, 0, 0, 0, 0, 0, 0, 3, 0, 0, 0, 4, 4, 4, 0, 1, 1, 0, 0, 3, 0, 4, 3, 3, 4, 3, 0, 0, 0, 4, 5, 4, 0, 0, 1, 0, 5, 4, 0, 0, 4, 0, 0, 1, 0, 1, 0, 1, 4, 0, 0, 5, 4, 3, 4, 2, 0, 0, 0, 3, 0, 0, 3
 |1, 0, 0, 0, 0, 0, 4, 3, 2, 0, 3, 3, 1, 1, 0, 2, 2, 2, 4, 4, 0, 0, 2, 2, 0, 3, 0, 0, 0, 0, 4, 4, 4, 5, 5, 0, 0, 2, 1, 5, 2, 0, 0, 2, 1, 0, 1, 1, 3, 2, 1, 2, 0, 0, 4, 3, 0, 4, 4, 2, 2, 0, 1, 0, 0, 3, 4, 2, 0, 3, 0, 0, 0, 2, 0, 4, 0, 0, 5, 4, 0, 0, 0, 0, 4, 4, 3, 0, 0, 2, 4, 0, 4, 0, 3, 3, 1, 0, 1, 0, 2, 0, 0, 0, 0, 0, 2, 2, 0, 2, 1, 0, 0, 3, 3, 3, 3, 0, 5, 5, 0, 0, 4, 0, 0, 3, 1, 1, 0, 2, 0, 1, 4, 4, 2, 0, 2, 2, 0, 0, 0, 0, 0, 1, 3, 0, 1, 5, 0, 0, 3, 0, 0, 0, 2, 0, 0, 3, 3, 3, 3, 0, 0, 0, 0, 2, 0, 1, 2, 1, 0, 0, 2, 0, 0, 5, 5, 0, 2, 0, 5, 4, 4, 0, 4, 0, 0, 2, 0, 3, 3, 0, 4, 0, 3, 5, 3, 0, 0, 0, 0, 0, 2, 0, 0, 2, 0, 4, 4, 4, 2, 2, 0, 4, 2, 1, 3, 0, 3, 0, 0, 0, 0, 0, 0, 0, 2, 0, 2, 0, 2, 0, 2, 0, 0, 1, 1, 0, 2, 1, 5, 5, 5, 3, 0, 3, 5, 3, 0, 0, 0, 1, 0, 0, 2, 3, 0, 2, 0, 0, 0, 0, 0, 3, 2, 2, 0, 0, 0, 2, 3, 0, 3, 0, 0, 1, 1, 0, 1, 3, 0, 2, 0, 5, 0, 0, 2, 1, 0, 0, 0, 0, 0, 3, 3, 3, 0, 2, 2, 0
 |7, 0, 0, 0, 0, 4, 4, 4, 3, 0, 5, 4, 0, 0, 0, 0, 0, 6, 5, 0, 0, 0, 0, 5, 1, 1, 1, 3, 0, 1, 0, 0, 5, 8, 0, 0, 0, 3, 0, 0, 0, 3, 6, 0, 5, 0, 4, 2, 0, 0, 0, 0, 6, 0, 8, 8, 7, 8, 0, 5, 10, 8, 0, 0, 0, 0, 4, 0, 3, 9, 0, 0, 0, 5, 0, 5, 0, 0, 0, 3, 3, 0, 3, 3, 10, 7, 3, 0, 0, 0, 2, 0, 1, 0, 0, 7, 0, 0, 0, 6, 0, 0, 3, 0, 2, 6, 0, 3, 4, 0, 2, 4, 0, 4, 9, 0, 0, 7, 7, 0, 5, 4, 4, 0, 0, 0, 8, 0, 8, 5, 5, 0, 0, 5, 0, 10, 9, 0, 6, 6, 0, 1, 0, 1, 8, 0, 7, 9, 7, 6, 0, 0, 4, 6, 0, 0, 0, 0, 9, 8, 0, 0, 6, 5, 4, 0, 0, 0, 9, 8, 0, 5, 0, 3, 0, 9, 0, 4, 0, 2, 0, 1, 0, 0, 0, 8, 0, 3, 0, 0, 0, 0, 0, 4, 4, 0, 5, 0, 0, 0, 1, 0, 0, 0, 7, 5, 0, 0, 7, 0, 0, 8, 7, 0, 0, 8, 0, 3, 0, 2, 2, 0, 0, 0, 3, 0, 0, 0, 0, 5, 0, 0, 4, 4, 0, 3, 0, 4, 2, 1, 3, 2, 1, 0, 2, 1, 0, 5, 5, 9, 8, 0, 6, 0, 4, 2, 2, 2, 0, 8, 7, 8, 8, 8, 0, 6, 0, 7, 3, 0, 0, 0, 7, 0, 0, 2, 0, 4, 2, 6, 5, 0, 4, 3, 0, 0, 5, 0, 5, 0, 3, 0, 0, 0, 6, 5, 3, 0, 0, 5
 |0, 5, 4, 7, 6, 0, 0, 0, 0, 8, 0, 0, 9, 6, 4, 10, 9, 0, 0, 6, 4, 6, 2, 0, 0, 0, 0, 0, 2, 0, 2, 1, 0, 0, 3, 1, 8, 0, 2, 9, 6, 0, 0, 6, 0, 3, 0, 0, 6, 4, 4, 7, 0, 6, 0, 0, 0, 0, 7, 0, 0, 0, 4, 5, 4, 2, 0, 8, 0, 0, 8, 7, 4, 0, 2, 0, 5, 4, 4, 0, 0, 9, 0, 0, 0, 0, 0, 5, 4, 3, 0, 4, 0, 4, 4, 0, 9, 4, 2, 0, 3, 2, 0, 4, 0, 0, 8, 0, 0, 5, 0, 0, 9, 0, 0, 5, 3, 0, 0, 4, 0, 0, 0, 8, 6, 6, 0, 8, 0, 0, 0, 6, 9, 0, 8, 0, 0, 3, 0, 0, 6, 0, 8, 0, 0, 5, 0, 0, 0, 0, 5, 4, 0, 0, 3, 3, 7, 6, 0, 0, 3, 2, 0, 0, 0, 5, 4, 2, 0, 0, 4, 0, 2, 0, 6, 0, 4, 0, 6, 0, 10, 0, 10, 8, 4, 0, 5, 0, 2, 2, 1, 2, 7, 0, 0, 7, 0, 7, 8, 6, 0, 8, 6, 5, 0, 0, 7, 7, 0, 4, 7, 0, 0, 4, 4, 0, 10, 0, 9, 0, 0, 6, 9, 8, 0, 4, 3, 2, 6, 0, 5, 2, 0, 0, 8, 0, 3, 0, 0, 0, 0, 0, 0, 5, 0, 0, 7, 0, 0, 0, 0, 2, 0, 2, 0, 0, 0, 0, 7, 0, 0, 0, 0, 0, 5, 0, 3, 0, 0, 2, 6, 5, 0, 8, 7, 0, 9, 0, 0, 0, 0, 3, 0, 0, 2, 6, 0, 2, 0, 5, 0, 6, 4, 1, 0, 0, 0, 9, 8, 0|];